100
32
27
5
12
15
11
15
9
9
26
26
16
7
9
18
25
9
9
11
2
19
4
5
2
1
1
1
2
5
7
1
19
2
23
3
1
5
2
1
2
4
3
1
2
1
2
18
1
3
6
6
17
1
2
2
2
6
17
3
4
20
1
16
2
2
2
3
5
1
7
2
1
1
1
2
18
17
19
3
1
3
3
1
2
1
5
1
1
1
2
3
1
1
1
1
4
3
2
1
2
1